1097
1031
1101
1048
1083
1082
1008
919
919
919
919
919
995
992
1029
1029
1029
1029
1023
1023
1023
919
919
919
958
1019
948
1056
1025
1025
1066
1034
1036
1022
1064
1064
1021
934
934
1016
1047
1041
1047
1047
1013
1067
1045
1023
1049
1002
1040
1040
1029
973
973
973
973
973
965
1025
992
930
930
992
953
897
897
897
897
987
945
959
952
944
1017
969
827
873
896
896
896
896
1001
1001
1001
912
912
871
899
994
994
935
1001
1001
1001
1014
987
920
920
873
873
852
852
852
915
882
882
914
962
968
968
948
948
794
794
794
794
794
794
794
794
794
794
930
957
957
975
987
892
976
982
926
958
982
982
982
1004
988
979
957
959
899
899
912
964
984
988
945
945
945
945
890
932
954
945
945
927
908
908
908
914
840
914
914
987
961
929
847
847
847
929
926
926
926
926
926
892
892
902
946
894
894
944
944
811
811
811
811
827
827
827
845
786
872
899
899
899
899
899
864
864
864
864
864
874
874
872
911
911
962
946
933
933
933
933
930
919
919
921
921
908
921
868
921
905
905
905
905
905
846
846
893
894
844
787
844
844
844
787
844
880
872
881
872
780
780
780
780
780
780
759
780
780
780
780
825
800
800
800
786
760
760
760
760
760
720
798
842
842
880
873
837
837
837
842
842
842
828
842
842
823
823
749
728
817
817
814
814
814
814
814
769
780
796
814
813
812
724
845
664
749
674
713
750
728
728
728
728
686
786
779
779
779
765
779
774
774
774
774
788
801
820
820
807
807
807
807
796
796
796
796
796
796
796
796
796
766
766
766
766
851
854
816
816
805
805
829
829
829
829
831
831
831
831
802
812
746
746
725
725
725
725
725
774
774
728
728
728
728
728
728
728
728
786
786
745
745
745
820
825
805
773
780
763
763
744
744
767
767
773
780
768
768
761
688
688
688
688
688
688
621
621
621
621
597
597
597
597
673
718
735
759
749
737
709
709
696
632
632
696
696
695
695
695
605
605
605
605
641
641
641
611
607
607
607
607
607
607
607
611
611
611
658
658
658
658
658
658
658
658
658
658
658
658
646
646
646
646
606
606
606
628
628
626
626
616
616
592
592
586
586
569
569
569
569
569
569
569
569
630
630
605
534
534
534
534
624
624
558
558
558
558
558
558
558
555
555
487
487
487
487
487
581
581
581
539
539
591
539
539
607
635
628
617
617
622
629
629
607
557
564
577
607
607
580
607
568
597
597
597
597
597
619
632
632
633
638
584
584
584
584
584
584
584
584
584
584
604
569
569
569
569
618
618
612
612
509
509
509
509
509
509
509
566
566
591
591
591
581
581
550
503
503
617
620
620
607
607
607
607
607
607
607
607
607
607
607
607
602
580
580
567
567
567
567
567
567
567
551
551
551
520
520
520
520
520
520
567
570
570
547
547
547
546
546
558
558
557
522
522
522
522
522
522
522
522
522
522
522
522
522
522
522
522
522
581
581
548
548
548
548
567
540
567
567
547
484
577
494
577
589
589
563
563
549
549
530
520
520
549
549
549
546
566
555
555
539
539
539
539
539
539
539
539
539
542
542
542
477
477
477
548
548
547
547
547
566
573
549
578
576
576
585
596
477
540
540
458
458
458
458
458
496
458
458
458
458
441
441
441
458
458
458
458
449
491
491
443
443
476
476
476
476
534
534
534
534
497
497
533
533
533
506
506
506
487
458
458
487
507
507
507
484
484
484
484
499
499
499
499
499
499
499
499
494
484
484
484
484
426
426
426
501
501
501
501
501
503
503
488
503
462
434
434
434
485
485
485
485
485
485
397
397
397
397
397
433
491
491
491
459
459
471
471
471
501
501
500
439
439
439
498
498
449
484
485
455
476
470
470
470
470
470
470
444
444
444
444
444
444
444
447
447
458
458
458
458
458
448
448
448
448
435
435
435
448
448
419
419
419
441
441
414
453
453
441
439
439
406
406
406
406
406
406
406
406
406
406
406
406
406
406
406
406
406
406
391
391
391
391
420
420
421
421
421
421
421
407
421
421
421
421
421
421
406
406
421
421
421
421
409
403
409
409
400
400
409
409
409
409
409
394
394
409
361
417
361
417
420
407
407
407
392
392
395
314
314
353
353
353
353
353
353
399
370
398
399
399
399
414
381
381
386
381
381
381
381
367
361
361
361
367
367
357
357
357
341
341
341
352
375
357
357
357
353
353
356
344
344
344
344
344
344
344
344
344
344
344
344
325
325
325
325
325
325
325
325
325
325
325
344
344
344
344
344
344
344
344
330
330
330
330
330
330
330
330
330
330
330
330
330
330
330
330
330
330
330
330
330
330
330
344
330
325
330
330
330
344
344
344
344
344
344
344
344
344
318
343
344
344
325
325
325
325
325
325
325
325
330
327
327
327
327
327
330
330
330
330
330
327
327
327
330
330
330
330
330
330
330
327
327
327
327
327
327
327
330
330
330
330
330
330
330
330
330
330
330
330
330
330
330
330
330
330
330
330
330
330
330
330
330
330
330
330
330
330
330
330
330
330
330
330
330
330
330
330
330
326
326
330
330
330
330
330
330
330
330
330
330
330
330
330
330
330
330
330
330
330
330
330
330
330
330
330
330
330
330
330
330
330
330
330
330
330
330
330
330
330
330
330
330
330
330
330
330
330
330
330
330
330
330
330
330
330
330
330
330
330
330
330
330
330
330
330
330
330
330
330
327
327
327
330
330
330
330
330
330
330
330
330
330
330
330
330
330
330
330
330
330
330
330
330
330
330
330
330
330
330
330
330
330
330
327
330
330
330
330
330
330
330
330
330
330
330
330
330
330
330
330
330
330
330
330
330
330
330
330
330
330
330
330
330
330
330
330
330
330
330
330
330
330
330
330
330
330
330
330
330
330
330
330
330
330
330
330
330
330
330
330
330
330
330
330
330
330
330
330
330
330
330
330
330
330
330
330
330
330
330
330
330
330
330
330
330
330
330
330
330
330
330
330
330
330
330
330
330
330
330
330
330
330
330
330
330
330
330
330
330
330
330
330
330
330
330
330
330
330
330
330
330
330
330
330
330
330
330
330
330
330
330
330
330
330
330
330
330
330
330
330
330
330
330
330
330
330
330
330
330
330
330
330
330
330
330
330
330
330
330
330
330
330
330
330
330
330
330
330
330
330
330
330
330
330
330
330
330
330
330
330
330
330
330
330
330
330
330
330
330
330
330
330
330
330
330
330
330
330
330
330
330
330
330
330
330
330
330
330
330
330
330
330
330
330
330
330
330
330
330
330
330
330
330
330
330
330
330
330
330
330
330
330
330
330
330
330
330
330
330
330
330
330
330
330
330
330
330
330
330
330
330
330
330
330
330
330
330
330
330
330
330
330
330
330
330
330
330
330
330
330
330
330
330
330
330
330
330
330
330
330
330
330
330
330
330
330
330
330
330
330
330
330
330
330
330
330
330
330
330
330
330
330
330
330
330
330
330
330
330
330
330
330
330
330
330
330
330
330
330
330
330
330
330
330
330
330
330
330
330
330
330
330
330
330
330
330
330
330
330
330
330
330
330
330
330
330
330
330
330
330
330
330
330
330
330
330
330
330
330
330
330
330
330
330
330
330
330
330
330
330
330
330
330
330
330
330
330
330
330
330
330
330
330
330
330
330
330
330
330
330
330
330
330
330
330
330
330
330
330
330
330
330
330
330
330
330
330
330
330
330
330
330
330
330
330
330
330
330
330
330
330
330
330
330
330
330
330
330
330
330
330
330
330
330
330
330
330
330
330
330
330
330
330
330
330
330
330
330
330
330
330
330
330
330
330
330
330
330
330
330
330
330
330
330
330
330
330
330
330
330
330
330
330
330
330
330
330
330
330
330
330
330
330
330
330
330
330
330
330
330
330
330
330
330
330
330
330
330
330
330
330
330
330
330
330
330
330
330
330
330
330
330
330
330
330
330
330
330
330
330
330
330
330
330
330
330
330
330
330
330
330
330
330
330
330
330
330
330
330
330
330
330
330
330
330
330
330
330
330
330
330
330
330
330
330
330
330
330
330
330
330
330
330
330
330
330
330
330
330
330
330
330
330
330
330
330
330
330
330
330
330
330
330
330
330
330
330
330
330
330
330
330
330
330
330
330
330
330
330
330
330
330
330
330
330
330
330
330
330
330
330
330
330
330
330
330
330
330
330
330
330
330
330
330
330
330
330
330
330
330
330
330
330
330
330
330
327
327
327
327
318
318
330
330
330
330
330
330
330
330
330
330
330
330
330
330
330
330
330
330
330
330
330
330
330
330
330
330
330
330
330
330
330
330
330
330
330
330
330
330
330
330
330
330
330
330
330
330
330
330
330
330
330
330
330
330
330
330
330
330
330
330
330
330
330
330
330
330
330
330
330
330
330
330
330
330
330
330
330
330
330
330
330
330
330
330
330
330
330
330
330
330
330
330
330
330
330
330
330
330
330
330
330
330
330
330
330
330
330
330
330
330
330
330
330
330
330
330
330
330
330
330
330
330
330
330
330
330
330
330
330
330
330
330
330
330
330
330
330
330
330
330
330
330
330
330
330
330
330
330
330
